1732
79 60 25 14 58 1 68 43 3 29 66 99 52 90 24 94 39 19 15 10 92 36 74 32 6 81 16 34 23 97 62 48 17 75 20 31 85 2 38 22 30 45 98 73 77 54 59 96 4 46 84 64 40 69 47 50 80 7 5 82 95 33 93 83 9 63 44 56 86 49 26 91 70 55 21 88 61 89 42 65 72 11 12 27 57 87 18 53 28 78 35 76 41 8 51 67 13 71 37 
